c read Graph
c width = 612
c time = 1651 ms
c width = 35
c time = 4168 ms
c width = 34
c time = 5215 ms
c width = 33
c time = 5501 ms
c width = 32
c time = 14352 ms
c width = 31
c time = 21278 ms
c width = 30
c time = 37313 ms
c width = 29
c time = 47456 ms
c width = 28
c time = 62011 ms
c width = 27
c time = 89615 ms
c width = 26
c time = 124662 ms
c width = 25
c time = 159001 ms
c width = 25
c time = 159369 ms
s td 551 26 625
b 1 1 2 26
b 2 2 3 26 27
b 3 23 24 49 50
b 4 3 26 27 51
b 5 23 49 50 75
b 6 551 576 577 602
b 7 575 599 600 624
b 8 551 577 602 603
b 9 575 599 623 624
b 10 3 4 5 29
b 11 3 5 28 29 52 76
b 12 5 28 29 52 54 76 78
b 13 5 29 52 54 76 78 102
b 14 5 29 54 76 78 102 126
b 15 5 29 31 54 55 78 102 126
b 16 5 31 54 55 78 80 102 104 126
b 17 5 31 55 78 80 102 104 126 128
b 18 5 31 55 80 102 104 126 128 152
b 19 5 31 55 57 80 81 104 126 128 152
b 20 5 31 57 80 81 104 107 126 128 132 152 154 156 180
b 21 5 31 57 81 83 107 126 128 132 152 154 156 180
b 22 5 9 31 35 57 59 83 107 126 128 132 152 154 156 180
b 23 9 35 59 83 107 126 128 132 152 154 156 180 204 226 228 252
b 24 9 35 59 83 107 132 156 180 182 204 208 226 228 232 252 256 278 280 304
b 25 156 180 182 204 208 228 230 232 252 256 278 280 304
b 26 204 228 230 252 254 256 278 280 304
b 27 204 228 229 230 254
b 28 228 252 253 254 278
b 29 254 278 279 280 304
b 30 230 254 255 256 280
b 31 156 180 182 204 206 208 230 232 256
b 32 206 230 231 232 256
b 33 180 204 205 206 230
b 34 156 180 181 182 206
b 35 182 206 207 208 232
b 36 9 35 59 61 83 87 107 113 132 137 156 161 182 185 208 210 226 232 234 252 256 278 280 304
b 37 35 59 61 83 87 107 113 132 137 156 158 161 182 185 208 210 234
b 38 132 156 157 158 182
b 39 35 59 61 83 87 107 113 132 137 158 159 161 182 185 208 210 234
b 40 158 159 182 184 185 208 210 234
b 41 184 208 209 210 234
b 42 158 182 183 184 208
b 43 35 59 61 83 87 107 113 132 135 137 158 159 161 185
b 44 135 159 160 161 185
b 45 35 59 61 83 87 107 109 113 132 135 137 158 159 161
b 46 83 107 109 132 133 135 158 159
b 47 83 107 108 109 133
b 48 109 133 134 135 159
b 49 35 59 61 83 87 109 111 113 135 137 161
b 50 35 59 61 83 85 87 109 111 135
b 51 35 59 60 61 85
b 52 59 83 84 85 109
b 53 85 109 110 111 135
b 54 61 85 86 87 111
b 55 87 111 112 113 137
b 56 111 135 136 137 161
b 57 9 35 61 87 113 137 161 185 208 210 226 232 234 252 256 260 278 280 284 304 308 330 332 356
b 58 208 232 234 256 260 280 282 284 304 308 330 332 356
b 59 256 280 282 304 306 308 330 332 356
b 60 282 306 307 308 332
b 61 280 304 305 306 330
b 62 306 330 331 332 356
b 63 256 280 281 282 306
b 64 208 232 234 256 258 260 282 284 308
b 65 208 232 233 234 258
b 66 232 256 257 258 282
b 67 258 282 283 284 308
b 68 234 258 259 260 284
b 69 9 35 61 87 113 137 161 185 210 226 234 236 252 260 278 284 304 308 330 332 356
b 70 210 234 235 236 260
b 71 9 35 61 87 113 137 139 161 165 185 189 210 213 226 236 237 252 260 278 284 304 308 330 332 356
b 72 9 13 35 39 61 63 87 113 139 165 189 213 226 236 237 252 260 278 284 304 308 330 332 356
b 73 9 13 35 37 39 61 63 87
b 74 37 61 62 63 87
b 75 13 37 38 39 63
b 76 9 11 13 35 37 61
b 77 9 10 11 35
b 78 11 12 13 37
b 79 11 35 36 37 61
b 80 13 39 63 65 87 89 113 139 165 189 213 226 236 237 252 260 278 284 304 308 330 332 356
b 81 39 63 64 65 89
b 82 63 87 88 89 113
b 83 13 39 65 89 91 113 117 139 141 165 189 213 226 236 237 252 260 278 284 304 308 330 332 356
b 84 13 17 39 43 65 69 91 93 117 141 165 189 213 226 236 237 252 260 278 284 304 308 330 332 356
b 85 13 17 39 43 65 67 69 91 93 117
b 86 67 91 92 93 117
b 87 13 17 39 41 43 65 67 91
b 88 13 15 17 39 41 65
b 89 13 14 15 39
b 90 15 16 17 41
b 91 15 39 40 41 65
b 92 17 41 42 43 67
b 93 41 65 66 67 91
b 94 43 67 68 69 93
b 95 17 21 43 45 69 93 117 141 165 189 213 226 236 237 252 260 278 284 304 308 330 332 356
b 96 17 19 21 43 45 69
b 97 19 20 21 45
b 98 17 18 19 43
b 99 19 43 44 45 69
b 100 21 45 69 71 72 93 98 117 124 141 150 165 189 213 226 236 237 252 260 278 284 304 308 330 332 356
b 101 45 69 70 71 72 93 98 117 124 141 150 165 189 213 226 236 237 252 260 278 284 304 308 330 332 356
b 102 69 70 71 72 93 95 98 117 124 141 150 165 189 213 226 236 237 252 260 278 284 304 308 330 332 356
b 103 69 71 72 93 95 98 117 119 124 141 150 165 189 213 226 236 237 252 260 278 284 304 308 330 332 356
b 104 71 72 93 95 96 98 117 119 124 141 150 165 189 213 226 236 237 252 260 278 284 304 308 330 332 356
b 105 72 93 95 96 98 117 119 122 124 141 150 165 189 213 226 236 237 252 260 278 284 304 308 330 332 356
b 106 93 95 96 98 117 118 119 122 124 141 150 165 189 213 226 236 237 252 260 278 284 304 308 330 332 356
b 107 95 96 98 117 118 119 120 122 124 141 150 165 189 213 226 236 237 252 260 278 284 304 308 330 332 356
b 108 96 98 117 118 119 120 122 124 141 146 150 165 189 213 226 236 237 252 260 278 284 304 308 330 332 356
b 109 98 117 118 119 120 122 123 124 141 146 150 165 189 213 226 236 237 252 260 278 284 304 308 330 332 356
b 110 117 118 119 120 122 123 124 141 142 146 150 165 189 213 226 236 237 252 260 278 284 304 308 330 332 356
b 111 118 119 120 122 123 124 141 142 143 146 150 165 189 213 226 236 237 252 260 278 284 304 308 330 332 356
b 112 119 120 122 123 124 141 142 143 144 146 150 165 189 213 226 236 237 252 260 278 284 304 308 330 332 356
b 113 120 122 123 124 141 142 143 144 146 150 165 170 189 213 226 236 237 252 260 278 284 304 308 330 332 356
b 114 122 123 124 141 142 143 144 146 148 150 165 170 189 213 226 236 237 252 260 278 284 304 308 330 332 356
b 115 122 124 141 142 143 144 146 148 150 165 170 172 189 213 226 236 237 252 260 278 284 304 308 330 332 356
b 116 124 141 142 143 144 146 148 150 165 170 172 174 189 213 226 236 237 252 260 278 284 304 308 330 332 356
b 117 141 142 143 144 146 148 150 165 167 170 172 174 189 213 226 236 237 252 260 278 284 304 308 330 332 356
b 118 141 143 144 146 148 150 165 167 170 172 174 189 191 213 226 236 237 252 260 278 284 304 308 330 332 356
b 119 141 165 166 167 191
b 120 143 144 146 148 150 165 167 168 170 172 174 189 191 213 226 236 237 252 260 278 284 304 308 330 332 356
b 121 144 146 148 150 165 167 168 170 172 174 189 191 196 213 226 236 237 252 260 278 284 304 308 330 332 356
b 122 144 148 150 165 167 168 170 172 174 189 191 196 198 213 226 236 237 252 260 278 284 304 308 330 332 356
b 123 144 150 165 167 168 170 172 174 175 189 191 196 198 213 226 236 237 252 260 278 284 304 308 330 332 356
b 124 144 165 167 168 170 172 174 175 189 191 196 197 198 213 226 236 237 252 260 278 284 304 308 330 332 356
b 125 144 165 167 168 170 174 175 189 191 196 197 198 200 213 226 236 237 252 260 278 284 304 308 330 332 356
b 126 144 165 167 168 170 174 189 191 196 197 198 200 213 224 226 236 237 252 260 278 284 304 308 330 332 356
b 127 144 165 167 168 170 189 191 196 197 198 200 213 224 226 236 237 250 252 260 278 284 304 308 330 332 356
b 128 200 224 225 250
b 129 144 165 167 168 170 189 191 194 196 197 198 213 224 226 236 237 250 252 260 278 284 304 308 330 332 356
b 130 165 167 168 170 189 191 194 196 197 198 213 215 224 226 236 237 250 252 260 278 284 304 308 330 332 356
b 131 167 168 170 189 191 192 194 196 197 198 213 215 224 226 236 237 250 252 260 278 284 304 308 330 332 356
b 132 168 170 189 191 192 194 196 197 198 213 215 218 224 226 236 237 250 252 260 278 284 304 308 330 332 356
b 133 170 189 191 192 194 196 197 198 213 215 218 220 224 226 236 237 250 252 260 278 284 304 308 330 332 356
b 134 189 191 192 194 196 197 198 213 215 216 218 220 224 226 236 237 250 252 260 278 284 304 308 330 332 356
b 135 189 192 194 196 197 198 213 215 216 218 220 224 226 236 237 244 250 252 260 278 284 304 308 330 332 356
b 136 189 192 196 197 198 213 215 216 218 220 222 224 226 236 237 244 250 252 260 278 284 304 308 330 332 356
b 137 189 192 196 198 213 215 216 218 220 222 224 226 236 237 244 248 250 252 260 278 284 304 308 330 332 356
b 138 189 192 196 213 215 216 218 220 222 224 226 236 237 244 248 250 252 260 274 278 284 304 308 330 332 356
b 139 224 248 249 250 274
b 140 189 192 196 213 215 216 218 220 222 226 236 237 242 244 248 250 252 260 274 278 284 304 308 330 332 356
b 141 189 196 213 215 216 218 220 222 226 236 237 242 244 248 250 252 260 268 274 278 284 304 308 330 332 356
b 142 218 220 222 226 236 237 242 243 244 248 250 252 260 268 274 278 284 304 308 330 332 356
b 143 189 196 213 215 216 220 222 226 236 237 239 242 244 248 250 252 260 268 274 278 284 304 308 330 332 356
b 144 196 213 215 216 220 222 226 236 237 239 242 244 248 250 252 260 263 268 274 278 284 304 308 330 332 356
b 145 196 215 216 220 222 226 236 237 239 240 242 244 248 250 252 260 263 268 274 278 284 304 308 330 332 356
b 146 196 216 220 222 226 236 237 239 240 241 242 244 248 250 252 260 263 268 274 278 284 304 308 330 332 356
b 147 196 220 222 226 236 237 239 240 241 242 244 248 250 252 260 261 263 268 274 278 284 304 308 330 332 356
b 148 196 220 222 226 237 239 240 241 242 244 248 250 252 260 261 262 263 268 274 278 284 304 308 330 332 356
b 149 196 220 222 226 239 240 241 242 244 248 250 252 260 261 262 263 264 268 274 278 284 304 308 330 332 356
b 150 196 220 222 226 240 241 242 244 248 250 252 260 261 262 263 264 268 274 278 284 286 304 308 330 332 356
b 151 196 220 222 226 240 241 242 244 248 250 252 260 262 263 264 268 274 278 284 286 288 304 308 330 332 356
b 152 196 220 222 226 240 241 242 244 248 250 252 260 262 264 268 274 278 284 286 288 304 308 312 330 332 356
b 153 262 264 268 274 278 284 286 287 288 304 308 312 330 332 356
b 154 196 220 222 226 240 241 242 244 248 250 252 260 264 266 268 274 278 284 286 288 304 308 312 330 332 356
b 155 196 220 222 226 240 242 244 248 250 252 260 264 266 268 274 278 284 286 288 290 304 308 312 330 332 356
b 156 240 264 265 266 290
b 157 196 220 222 226 242 244 246 248 250 252 260 264 266 268 274 278 284 286 288 290 304 308 312 330 332 356
b 158 220 222 226 242 244 246 248 250 252 260 264 266 268 270 274 278 284 286 288 290 304 308 312 330 332 356
b 159 222 226 242 244 246 248 250 252 260 264 266 268 270 272 274 278 284 286 288 290 304 308 312 330 332 356
b 160 226 242 244 246 248 250 252 260 264 266 268 270 272 274 278 284 286 288 290 292 304 308 312 330 332 356
b 161 226 244 246 248 250 252 260 264 266 268 270 272 274 278 284 286 288 290 292 294 304 308 312 330 332 356
b 162 226 246 248 250 252 260 264 266 268 270 272 274 278 284 286 288 290 292 294 296 304 308 312 330 332 356
b 163 226 248 250 252 260 264 266 268 270 272 274 278 284 286 288 290 292 294 296 298 304 308 312 330 332 356
b 164 226 250 252 260 264 266 268 270 272 274 278 284 286 288 290 292 294 296 298 304 308 310 312 330 332 356
b 165 226 250 252 264 266 268 270 272 274 278 284 286 288 290 292 294 296 298 304 308 310 312 314 330 332 356
b 166 226 250 252 266 268 270 272 274 278 284 286 288 290 292 294 296 298 304 308 310 312 314 316 330 332 356
b 167 226 250 252 268 270 272 274 278 284 286 288 290 292 294 296 298 304 308 310 312 314 316 318 330 332 356
b 168 226 250 252 270 272 274 278 284 286 288 290 292 294 296 298 304 308 310 312 314 316 318 320 330 332 356
b 169 226 250 252 272 274 278 284 286 288 290 292 294 296 298 304 308 310 312 314 316 318 320 322 330 332 356
b 170 226 250 252 274 278 284 286 288 290 292 294 296 298 304 308 310 312 314 316 318 320 322 330 332 334 356
b 171 226 250 252 274 278 286 288 290 292 294 296 298 304 308 310 312 314 316 318 320 322 330 332 334 336 356
b 172 226 250 252 274 278 288 290 292 294 296 298 304 308 310 312 314 316 318 320 322 330 332 334 336 338 356
b 173 226 250 252 274 278 290 292 294 296 298 304 308 310 312 314 316 318 320 322 330 332 334 336 338 340 356
b 174 226 250 252 274 278 292 294 296 298 304 308 310 312 314 316 318 320 322 330 332 334 336 338 340 344 356
b 175 226 250 252 274 278 292 296 298 304 308 310 312 314 316 318 320 322 330 332 334 336 338 340 344 346 356
b 176 226 250 252 274 278 292 298 304 308 310 312 314 316 318 320 322 330 332 334 336 338 340 344 346 356 358
b 177 226 250 252 274 278 292 298 304 310 312 314 316 318 320 322 330 332 334 336 338 340 344 346 356 358 360
b 178 226 250 252 274 278 292 298 304 312 314 316 318 320 322 330 332 334 336 338 340 344 346 356 358 360 362
b 179 226 250 252 274 278 292 298 304 314 316 318 320 322 330 332 334 336 338 340 344 346 356 358 360 362 364
b 180 226 250 252 274 278 292 298 304 316 318 320 322 330 332 334 336 338 340 344 346 356 358 360 362 364 370
b 181 226 250 252 274 278 292 298 304 316 318 322 330 332 334 336 338 340 344 346 356 357 358 360 362 364 370
b 182 226 250 252 274 278 292 298 304 316 318 322 330 334 336 338 340 344 346 356 357 358 360 362 364 370 384
b 183 226 250 252 274 278 292 298 304 316 318 322 330 336 338 340 344 346 356 357 358 360 362 364 370 384 386
b 184 226 250 252 274 278 292 298 304 316 318 322 330 338 340 344 346 356 357 358 360 362 364 370 384 386 388
b 185 226 250 252 274 278 292 298 304 316 318 322 330 340 344 346 356 357 358 360 362 364 370 382 384 386 388
b 186 226 250 252 274 278 292 298 304 316 318 322 330 340 344 346 356 358 360 362 364 370 382 384 386 388 408
b 187 226 250 252 274 278 292 298 304 316 318 322 330 340 344 346 356 360 362 364 370 382 384 386 388 408 412
b 188 362 386 387 388 412
b 189 226 250 252 274 278 292 298 304 316 318 322 330 340 344 346 356 360 364 370 382 384 386 388 408 410 412
b 190 226 250 252 274 278 292 298 304 316 318 322 330 340 344 346 356 364 370 382 384 386 388 408 410 412 434
b 191 226 250 252 274 278 292 298 304 316 318 322 330 340 344 346 356 364 370 382 386 388 408 410 411 412 434
b 192 226 250 252 274 278 292 298 304 316 318 322 330 340 344 346 356 364 370 382 388 408 410 411 412 434 436
b 193 226 250 252 274 278 292 298 304 316 318 322 330 340 344 346 356 364 370 382 388 408 410 412 434 436 460
b 194 226 250 252 274 278 292 298 304 316 318 322 330 340 342 344 346 356 364 370 382 388 408 412 434 436 460
b 195 226 250 252 274 278 298 304 316 318 322 330 340 342 344 346 356 364 366 370 382 388 408 412 434 436 460
b 196 226 250 252 274 278 298 304 318 322 330 340 342 344 346 356 364 366 368 370 382 388 408 412 434 436 460
b 197 226 250 252 274 278 298 304 322 330 340 342 344 346 356 364 366 368 370 382 388 392 408 412 434 436 460
b 198 226 250 252 274 278 298 304 322 330 340 344 346 356 364 366 368 370 382 388 392 394 408 412 434 436 460
b 199 226 250 252 274 278 298 304 322 330 340 346 356 364 366 368 370 382 388 392 394 408 412 418 434 436 460
b 200 368 392 393 394 418
b 201 226 250 252 274 276 278 298 304 322 330 340 346 356 364 366 370 382 388 392 394 408 412 418 434 436 460
b 202 250 252 274 276 277 278 298 304 322 330 340 346 356 364 366 370 382 388 392 394 408 412 418 434 436 460
b 203 250 274 276 277 278 298 301 304 322 330 340 346 356 364 366 370 382 388 392 394 408 412 418 434 436 460
b 204 250 274 277 278 298 301 302 304 322 330 340 346 356 364 366 370 382 388 392 394 408 412 418 434 436 460
b 205 250 274 278 298 301 302 303 304 322 330 340 346 356 364 366 370 382 388 392 394 408 412 418 434 436 460
b 206 250 274 298 301 302 303 304 322 326 330 340 346 356 364 366 370 382 388 392 394 408 412 418 434 436 460
b 207 250 274 298 302 303 304 322 326 327 330 340 346 356 364 366 370 382 388 392 394 408 412 418 434 436 460
b 208 250 274 298 303 304 322 326 327 328 330 340 346 356 364 366 370 382 388 392 394 408 412 418 434 436 460
b 209 250 274 298 304 322 326 327 328 329 330 340 346 356 364 366 370 382 388 392 394 408 412 418 434 436 460
b 210 250 274 298 322 326 327 328 329 330 340 346 352 356 364 366 370 382 388 392 394 408 412 418 434 436 460
b 211 250 274 298 322 326 328 329 330 340 346 352 354 356 364 366 370 382 388 392 394 408 412 418 434 436 460
b 212 250 274 298 322 326 328 330 340 346 352 354 356 364 366 370 378 382 388 392 394 408 412 418 434 436 460
b 213 250 274 298 322 326 330 340 346 352 354 356 364 366 370 378 382 388 390 392 394 408 412 418 434 436 460
b 214 250 274 298 322 326 330 346 352 354 356 364 366 370 378 382 388 389 390 392 394 408 412 418 434 436 460
b 215 250 274 298 322 326 330 346 352 354 356 366 370 378 382 388 389 390 391 392 394 408 412 418 434 436 460
b 216 250 274 298 322 326 330 346 352 354 356 370 378 382 388 389 390 391 392 394 408 412 413 418 434 436 460
b 217 250 274 298 322 326 330 346 352 354 356 370 378 382 389 390 391 392 394 408 412 413 414 418 434 436 460
b 218 250 274 298 322 326 330 346 352 354 356 370 378 382 390 391 392 394 408 412 413 414 415 418 434 436 460
b 219 250 274 298 322 326 330 346 352 354 356 370 378 382 391 392 394 408 412 413 414 415 416 418 434 436 460
b 220 250 274 298 322 326 330 346 352 354 356 370 378 382 392 394 408 412 413 414 415 416 417 418 434 436 460
b 221 250 274 298 322 326 330 346 352 354 356 370 378 382 394 408 412 413 414 415 416 417 418 434 436 437 460
b 222 250 274 298 322 326 330 346 352 354 356 370 378 382 394 408 413 414 415 416 417 418 434 436 437 438 460
b 223 250 274 298 322 326 330 346 352 354 356 370 378 382 394 408 414 415 416 417 418 434 436 437 438 439 460
b 224 250 274 298 322 326 330 346 352 354 356 370 378 382 394 408 415 416 417 418 434 436 437 438 439 440 460
b 225 250 274 298 322 326 330 346 352 354 356 370 378 382 394 408 416 417 418 434 436 437 438 439 440 441 460
b 226 250 274 298 322 326 330 346 352 354 356 370 378 382 394 408 417 418 434 436 437 438 439 440 441 442 460
b 227 250 274 298 322 326 330 346 352 354 356 370 378 382 394 408 418 434 436 437 438 439 440 441 442 460 462
b 228 250 274 298 322 326 330 346 352 354 356 370 378 382 394 408 418 434 436 438 439 440 441 442 460 462 463
b 229 250 274 298 322 326 330 346 352 354 356 370 378 382 394 408 418 434 436 439 440 441 442 460 462 463 464
b 230 250 274 298 322 326 330 346 352 354 356 370 378 382 394 408 418 434 436 440 441 442 460 462 463 464 466
b 231 250 274 298 322 326 330 346 352 354 356 370 378 382 394 408 418 434 436 440 442 460 462 463 464 466 490
b 232 250 274 298 322 326 330 346 352 354 356 370 378 382 394 408 418 434 436 442 460 462 463 464 466 488 490
b 233 250 274 298 322 326 330 346 352 354 356 370 378 382 394 408 418 434 436 442 460 462 464 466 488 490 514
b 234 464 466 488 489 490 514
b 235 250 274 298 322 326 330 346 352 354 356 370 378 380 382 394 408 418 434 436 442 460 462 466 488 490 514
b 236 250 274 298 322 326 346 352 354 356 370 378 380 382 394 404 408 418 434 436 442 460 462 466 488 490 514
b 237 250 274 298 322 326 346 352 356 370 378 380 381 382 394 404 408 418 434 436 442 460 462 466 488 490 514
b 238 250 274 298 322 326 346 352 370 378 380 381 382 394 404 406 408 418 434 436 442 460 462 466 488 490 514
b 239 250 274 298 322 326 346 352 370 378 380 382 394 404 406 408 418 430 434 436 442 460 462 466 488 490 514
b 240 380 404 405 406 430
b 241 250 274 298 322 326 346 352 370 378 382 394 404 406 408 418 430 432 434 436 442 460 462 466 488 490 514
b 242 382 406 408 418 430 432 434 436 442 460 462 466 488 490 514
b 243 250 274 298 322 326 346 352 370 378 394 404 406 408 418 430 432 434 436 442 456 460 462 466 488 490 514
b 244 406 430 431 432 456
b 245 250 274 298 322 326 346 352 370 376 378 394 404 408 418 430 432 434 436 442 456 460 462 466 488 490 514
b 246 250 274 298 322 346 352 370 376 378 394 402 404 408 418 430 432 434 436 442 456 460 462 466 488 490 514
b 247 250 274 298 322 346 370 376 378 394 402 404 408 418 426 430 432 434 436 442 456 460 462 466 488 490 514
b 248 250 274 298 322 346 370 378 394 402 404 408 418 426 430 432 433 434 436 442 456 460 462 466 488 490 514
b 249 250 274 298 322 346 370 378 394 402 404 418 426 430 432 433 434 436 442 456 458 460 462 466 488 490 514
b 250 250 274 298 322 346 370 378 394 402 404 418 426 430 432 434 436 442 456 458 460 462 466 482 488 490 514
b 251 250 274 298 322 346 370 378 394 402 404 418 426 430 434 436 442 456 458 459 460 462 466 482 488 490 514
b 252 250 274 298 322 346 370 378 394 402 404 418 426 430 436 442 456 458 459 460 462 466 482 484 488 490 514
b 253 250 274 298 322 346 370 378 394 402 404 418 426 430 436 442 456 458 460 462 466 482 484 488 490 508 514
b 254 458 482 483 484 508
b 255 250 274 298 322 346 370 378 394 402 404 418 426 428 430 436 442 456 460 462 466 482 484 488 490 508 514
b 256 250 274 298 322 346 370 394 402 404 418 426 428 430 436 442 452 456 460 462 466 482 484 488 490 508 514
b 257 250 274 298 322 346 370 394 404 418 426 428 429 430 436 442 452 456 460 462 466 482 484 488 490 508 514
b 258 250 274 298 322 346 370 394 418 426 428 429 430 436 442 452 454 456 460 462 466 482 484 488 490 508 514
b 259 250 274 298 322 346 370 394 418 426 428 430 436 442 452 454 456 460 462 466 478 482 484 488 490 508 514
b 260 250 274 298 322 346 370 394 418 426 430 436 442 452 454 456 460 462 466 478 480 482 484 488 490 508 514
b 261 250 274 298 322 346 370 394 418 426 436 442 452 454 456 460 462 466 478 480 482 484 488 490 504 508 514
b 262 250 274 298 322 346 370 394 418 426 436 442 452 456 460 462 466 478 480 481 482 484 488 490 504 508 514
b 263 250 274 298 322 346 370 394 418 426 436 442 452 460 462 466 478 480 481 482 484 488 490 504 506 508 514
b 264 250 274 298 322 346 370 394 418 426 436 442 452 460 462 466 478 480 482 484 488 490 504 506 508 514 530
b 265 480 504 505 506 530
b 266 250 274 298 322 346 370 394 418 426 436 442 452 460 462 466 476 478 482 484 488 490 504 506 508 514 530
b 267 250 274 298 322 346 370 394 418 436 442 452 460 462 466 476 478 482 484 488 490 502 504 506 508 514 530
b 268 250 274 298 322 346 370 394 418 436 442 460 462 466 476 478 482 484 488 490 502 504 506 508 514 526 530
b 269 250 274 298 322 346 370 394 418 436 442 460 462 466 478 482 484 488 490 502 504 506 508 514 526 528 530
b 270 250 274 298 322 346 370 394 418 436 442 460 462 466 482 484 488 490 502 504 506 508 514 526 528 530 532
b 271 250 274 298 322 346 370 394 418 436 442 460 462 466 484 488 490 502 504 506 508 514 526 528 529 530 532
b 272 250 274 298 322 346 370 394 418 436 442 460 462 466 484 488 490 502 506 508 514 526 528 529 530 532 556
b 273 250 274 298 322 346 370 394 418 436 442 460 462 466 484 488 490 502 508 514 526 528 529 530 532 554 556
b 274 250 274 298 322 346 370 394 418 436 442 460 462 466 484 488 490 502 508 514 526 528 530 532 554 555 556
b 275 250 274 298 322 346 370 394 418 436 442 460 462 466 484 488 490 502 508 514 526 528 532 554 555 556 580
b 276 250 274 298 322 346 370 394 418 436 442 460 462 466 484 488 490 502 508 514 526 528 532 554 556 580 606
b 277 250 274 298 322 346 370 394 418 436 442 460 462 466 484 488 490 508 510 512 514 532 536 554 556 580 606
b 278 436 460 462 484 486 488 510 512 536
b 279 486 510 511 512 536
b 280 436 460 461 462 486
b 281 460 484 485 486 510
b 282 462 486 487 488 512
b 283 502 526 528 554 580 604 606
b 284 502 526 528 554 578 580 604
b 285 554 578 579 580 604
b 286 502 526 528 552 554 578 604
b 287 526 552 578 603 604
b 288 526 551 552 578 603
b 289 551 552 577 578 603
b 290 502 526 527 528 552
b 291 528 552 553 554 578
b 292 580 604 605 606
b 293 506 530 531 532 556
b 294 482 506 507 508 532
b 295 478 502 503 504 528
b 296 476 501 502 526
b 297 452 476 477 478 502
b 298 426 451 452 476
b 299 454 478 479 480 504
b 300 430 454 455 456 480
b 301 428 452 453 454 478
b 302 402 426 427 428 452
b 303 378 402 403 404 428
b 304 432 456 457 458 482
b 305 376 401 402 426
b 306 352 376 377 378 402
b 307 326 351 352 376
b 308 382 406 407 408 432
b 309 354 378 379 380 404
b 310 330 354 355 356 380
b 311 440 464 465 466 490
b 312 340 364 365 366 390
b 313 328 352 353 354 378
b 314 226 251 252 276
b 315 344 368 369 370 394
b 316 342 366 367 368 392
b 317 318 342 343 344 368
b 318 316 340 341 342 366
b 319 292 316 317 318 342
b 320 410 434 435 436 460
b 321 384 408 409 410 434
b 322 360 384 385 386 410
b 323 358 382 383 384 408
b 324 338 362 363 364 388
b 325 336 360 361 362 386
b 326 334 358 359 360 384
b 327 320 322 330 332 338 340 344 345 346 356 364 370
b 328 314 338 339 340 364
b 329 312 336 337 338 362
b 330 310 334 335 336 360
b 331 308 332 333 334 358
b 332 296 320 321 322 346
b 333 294 318 319 320 344
b 334 290 314 315 316 340
b 335 288 312 313 314 338
b 336 286 310 311 312 336
b 337 284 308 309 310 334
b 338 272 296 297 298 322
b 339 270 294 295 296 320
b 340 268 292 293 294 318
b 341 266 290 291 292 316
b 342 264 288 289 290 314
b 343 260 284 285 286 310
b 344 248 272 273 274 298
b 345 246 270 271 272 296
b 346 244 268 269 270 294
b 347 242 266 267 268 292
b 348 222 246 247 248 272
b 349 220 244 245 246 270
b 350 196 220 221 222 246
b 351 213 237 238 239 263
b 352 189 213 214 215 239
b 353 192 216 217 218 242
b 354 198 222 223 224 248
b 355 194 218 219 220 244
b 356 170 194 195 196 220
b 357 168 192 193 194 218
b 358 165 189 190 191 215
b 359 144 168 169 170 194
b 360 174 198 199 200 224
b 361 148 172 173 174 198
b 362 146 170 171 172 196
b 363 124 148 149 150 174
b 364 122 146 147 148 172
b 365 120 144 145 146 170
b 366 96 120 121 122 146
b 367 72 96 97 98 122
b 368 69 93 94 95 119
b 369 21 45 47 71 72 98 124 150
b 370 21 45 46 47 71
b 371 21 47 72 98 100 124 150
b 372 100 124 125 150
b 373 21 47 72 74 98 100 124
b 374 74 98 99 100 124
b 375 21 47 48 72 74 98 100
b 376 48 72 73 74 98
b 377 21 23 47 48 74 100
b 378 23 48 74 75 100
b 379 23 48 49 74 75
b 380 21 22 23 47
b 381 65 89 91 113 115 117 139 141 165
b 382 89 113 114 115 139
b 383 115 139 140 141 165
b 384 91 115 116 117 141
b 385 65 89 90 91 115
b 386 113 137 139 161 165 185 187 189 210 213 236 237
b 387 113 137 139 161 163 165 187 189 213
b 388 137 161 162 163 187
b 389 139 163 164 165 189
b 390 113 137 138 139 163
b 391 163 187 188 189 213
b 392 161 185 187 210 211 213 236 237
b 393 187 211 212 213 237
b 394 161 185 186 187 211
b 395 126 128 152 154 178 180 204 226 228 252
b 396 128 152 153 154 178
b 397 154 178 179 180 204
b 398 126 152 178 202 204 226 228 252
b 399 126 152 176 178 202 226
b 400 176 201 202 226
b 401 126 151 152 176
b 402 152 176 177 178 202
b 403 178 202 203 204 228
b 404 202 226 227 228 252
b 405 5 9 31 33 35 57 59 83
b 406 5 7 9 31 33 57
b 407 7 31 32 33 57
b 408 7 8 9 33
b 409 5 6 7 31
b 410 9 33 34 35 59
b 411 33 57 58 59 83
b 412 57 81 82 83 107
b 413 80 81 104 107 128 130 132 154 156 180
b 414 80 81 104 106 107 130 132 156
b 415 80 104 105 106 130
b 416 106 130 131 132 156
b 417 104 128 129 130 154
b 418 130 154 155 156 180
b 419 31 55 56 57 81
b 420 102 126 127 128 152
b 421 78 102 103 104 128
b 422 54 78 79 80 104
b 423 5 29 30 31 55
b 424 76 101 102 126
b 425 52 76 77 78 102
b 426 28 52 53 54 78
b 427 3 28 51 52 76
b 428 3 27 28 51 52
b 429 490 514 515 516 540
b 430 488 490 512 514 516 536 540 542 560 568 584 594 610 618
b 431 250 274 298 322 346 350 370 374 394 398 418 420 422 442 446 466 490 516 542 568 594 618
b 432 250 274 298 322 346 370 394 418 442 466 484 488 490 508 510 512 514 532 536 556 560 580 584 606 610
b 433 250 274 298 322 346 370 394 418 442 466 488 490 512 514 516 536 542 560 568 584 594 610 618
b 434 250 274 298 322 346 370 394 418 442 466 488 490 512 514 536 560 584 610 618
b 435 350 374 394 398 418 420 422 442 446 466 470 490 494 516 518 542 568 594 618
b 436 350 374 398 422 446 450 470 472 474 494 498 518 542 568 594 618
b 437 350 374 398 422 446 448 450 472 474 498
b 438 350 374 398 422 424 448 450 474
b 439 398 422 423 424 448
b 440 424 448 449 450 474
b 441 350 374 398 400 424 450
b 442 400 424 425 450
b 443 374 398 399 400 424
b 444 350 374 375 400
b 445 422 446 447 448 472
b 446 448 472 473 474 498
b 447 446 450 470 472 474 494 498 518 520 542 546 568 570 594 618
b 448 494 518 520 542 544 546 568 570 594
b 449 544 568 569 570 594
b 450 494 518 519 520 544
b 451 520 544 545 546 570
b 452 518 542 543 544 568
b 453 446 450 470 472 474 494 498 520 522 546 570 594 618
b 454 446 470 472 494 496 498 520 522 546
b 455 470 494 495 496 520
b 456 472 496 497 498 522
b 457 446 470 471 472 496
b 458 496 520 521 522 546
b 459 450 474 498 522 524 546 550 570 594 618
b 460 498 522 524 546 550 570 594 618 620
b 461 498 522 524 546 550 570 594 596 620
b 462 570 594 595 596 620
b 463 498 522 524 546 550 570 572 596 620
b 464 546 570 571 572 596
b 465 498 522 524 546 548 550 572 596 620
b 466 524 548 550 572 596 620 622
b 467 596 620 621 622
b 468 524 548 550 572 596 598 622
b 469 572 596 597 598 622
b 470 524 548 550 572 574 598 622
b 471 550 574 598 622 623
b 472 550 574 575 598 623
b 473 574 575 598 599 623
b 474 548 572 573 574 598
b 475 524 548 549 550 574
b 476 498 522 523 524 548
b 477 522 546 547 548 572
b 478 594 618 619 620
b 479 450 474 498 500 524 550
b 480 450 474 475 500
b 481 500 524 525 550
b 482 474 498 499 500 524
b 483 394 418 420 442 446 466 468 470 490 494 516 518 542
b 484 394 418 420 442 444 446 468 470 494
b 485 420 444 445 446 470
b 486 444 468 469 470 494
b 487 394 418 419 420 444
b 488 418 442 443 444 468
b 489 442 466 468 490 492 494 516 518 542
b 490 492 516 517 518 542
b 491 442 466 467 468 492
b 492 468 492 493 494 518
b 493 466 490 491 492 516
b 494 484 508 510 532 536 556 558 560 580 584 606 610
b 495 532 556 558 580 582 584 606 610
b 496 532 556 557 558 582
b 497 556 580 581 582 606
b 498 558 582 584 606 608 610
b 499 582 606 607 608
b 500 584 608 609 610
b 501 558 582 583 584 608
b 502 484 508 510 532 534 536 558 560 584
b 503 508 532 533 534 558
b 504 510 534 535 536 560
b 505 534 558 559 560 584
b 506 484 508 509 510 534
b 507 488 512 514 516 536 540 542 560 564 568 584 588 594 610 614 618
b 508 516 540 542 564 566 568 588 594 614 618
b 509 540 542 564 566 568 588 592 594 614 618
b 510 542 566 567 568 592
b 511 568 592 593 594 618
b 512 540 564 566 588 590 592 614 618
b 513 566 590 592 614 616 618
b 514 592 616 617 618
b 515 566 590 591 592 616
b 516 590 614 615 616
b 517 564 588 589 590 614
b 518 540 564 565 566 590
b 519 516 540 541 542 566
b 520 488 512 514 536 540 560 562 564 584 588 610 614
b 521 536 560 562 584 586 588 610 614
b 522 560 584 585 586 610
b 523 536 560 561 562 586
b 524 562 586 588 610 612 614
b 525 562 586 587 588 612
b 526 588 612 613 614
b 527 586 610 611 612
b 528 488 512 514 536 538 540 562 564 588
b 529 512 536 537 538 562
b 530 538 562 563 564 588
b 531 488 512 513 514 538
b 532 514 538 539 540 564
b 533 250 274 298 322 346 350 370 372 374 394 398 420 422 446
b 534 250 274 298 322 346 348 350 372 374 398
b 535 250 274 298 322 324 348 350 374
b 536 324 348 349 350 374
b 537 250 274 298 300 324 350
b 538 300 324 325 350
b 539 250 274 275 300
b 540 274 298 299 300 324
b 541 298 322 323 324 348
b 542 322 346 347 348 372
b 543 348 372 373 374 398
b 544 346 370 372 394 396 398 420 422 446
b 545 346 370 371 372 396
b 546 396 420 421 422 446
b 547 370 394 395 396 420
b 548 372 396 397 398 422
b 549 600 624 625
b 550 576 601 602
b 551 24 25 50
1 2
2 4
3 551
3 5
4 428
5 379
6 550
6 8
7 549
7 9
8 289
9 473
10 11
11 427
11 12
12 426
12 13
13 425
13 14
14 424
14 15
15 423
15 16
16 422
16 17
17 421
17 18
18 420
18 19
19 419
19 20
20 413
20 21
21 412
21 22
22 405
22 23
23 395
23 24
24 36
24 25
25 26
25 31
26 28
26 27
26 29
26 30
31 33
31 34
31 32
31 35
36 57
36 37
37 38
37 39
39 40
39 43
40 42
40 41
43 44
43 45
45 46
45 49
46 47
46 48
49 55
49 56
49 50
50 51
50 52
50 54
50 53
57 69
57 58
58 59
58 64
59 61
59 63
59 62
59 60
64 66
64 67
64 68
64 65
69 71
69 70
71 386
71 72
72 80
72 73
73 74
73 75
73 76
76 77
76 78
76 79
80 83
80 81
80 82
83 381
83 84
84 95
84 85
85 87
85 94
85 86
87 88
87 92
87 93
88 89
88 90
88 91
95 100
95 96
96 97
96 98
96 99
100 369
100 101
101 102
102 103
103 368
103 104
104 105
105 367
105 106
106 107
107 108
108 366
108 109
109 110
110 111
111 112
112 113
113 365
113 114
114 115
115 364
115 116
116 363
116 117
117 118
118 120
118 119
120 121
121 362
121 122
122 361
122 123
123 124
124 125
125 126
126 360
126 127
127 129
127 128
129 359
129 130
130 358
130 131
131 132
132 357
132 133
133 356
133 134
134 135
135 355
135 136
136 137
137 354
137 138
138 140
138 139
140 353
140 141
141 143
141 142
143 352
143 144
144 351
144 145
145 146
146 147
147 148
148 149
149 150
150 151
151 152
152 154
152 153
154 155
155 157
155 156
157 350
157 158
158 349
158 159
159 348
159 160
160 347
160 161
161 346
161 162
162 345
162 163
163 344
163 164
164 343
164 165
165 342
165 166
166 341
166 167
167 340
167 168
168 339
168 169
169 338
169 170
170 337
170 171
171 336
171 172
172 335
172 173
173 334
173 174
174 333
174 175
175 332
175 176
176 331
176 177
177 330
177 178
178 329
178 179
179 328
179 180
180 327
180 181
181 182
182 326
182 183
183 325
183 184
184 324
184 185
185 186
186 323
186 187
187 189
187 188
189 322
189 190
190 321
190 191
191 192
192 193
193 320
193 194
194 319
194 195
195 318
195 196
196 317
196 197
197 316
197 198
198 315
198 199
199 201
199 200
201 314
201 202
202 203
203 204
204 205
205 206
206 207
207 208
208 209
209 210
210 211
211 212
212 313
212 213
213 312
213 214
214 215
215 216
216 217
217 218
218 219
219 220
220 221
221 222
222 223
223 224
224 225
225 226
226 227
227 228
228 229
229 230
230 231
231 311
231 232
232 233
233 235
233 234
235 310
235 236
236 309
236 237
237 238
238 239
239 241
239 240
241 308
241 243
241 242
243 245
243 244
245 307
245 246
246 306
246 247
247 305
247 248
248 249
249 250
250 304
250 251
251 252
252 253
253 255
253 254
255 303
255 256
256 302
256 257
257 258
258 259
259 301
259 260
260 300
260 261
261 299
261 262
262 263
263 264
264 266
264 265
266 298
266 267
267 297
267 268
268 296
268 269
269 295
269 270
270 294
270 271
271 272
272 293
272 273
273 274
274 275
275 276
276 283
276 277
277 432
277 278
278 280
278 281
278 282
278 279
283 292
283 284
284 285
284 286
286 291
286 290
286 287
287 288
288 289
369 370
369 371
371 372
371 373
373 374
373 375
375 376
375 377
377 380
377 378
378 379
381 382
381 383
381 384
381 385
386 387
386 392
387 389
387 390
387 391
387 388
392 393
392 394
395 396
395 397
395 398
398 404
398 403
398 399
399 401
399 400
399 402
405 410
405 411
405 406
406 409
406 408
406 407
413 417
413 418
413 414
414 415
414 416
427 428
429 430
430 507
430 433
431 533
431 435
431 433
432 494
432 434
433 434
435 436
435 483
436 437
436 447
437 446
437 445
437 438
438 440
438 439
438 441
441 444
441 442
441 443
447 448
447 453
448 450
448 452
448 451
448 449
453 459
453 454
454 456
454 457
454 455
454 458
459 479
459 460
460 478
460 461
461 462
461 463
463 464
463 465
465 476
465 477
465 466
466 467
466 468
468 469
468 470
470 471
470 475
470 474
471 472
472 473
479 480
479 481
479 482
483 484
483 489
484 485
484 487
484 488
484 486
489 491
489 493
489 492
489 490
494 495
494 502
495 496
495 497
495 498
498 499
498 500
498 501
502 503
502 504
502 505
502 506
507 508
507 520
508 509
508 519
509 512
509 510
509 511
512 517
512 518
512 513
513 516
513 514
513 515
520 521
520 528
521 522
521 523
521 524
524 527
524 526
524 525
528 531
528 529
528 532
528 530
533 544
533 534
534 535
534 542
534 543
535 536
535 541
535 537
537 539
537 538
537 540
544 545
544 546
544 547
544 548
